%%% static parameters %%%
timespan = 1;
Fact = [3];
Distr1 = [10];
Distr2 = [20];
Clients_N = [40];
Demand_W = [15];
Lt0 = [4];
Lt1 = [4];
SS_ = [0.85];
DS_D = [7];
K = [200];
MA = [500];
%%% dynamic parameters %%%
lost_ratio_sales_ret_th = 0.2590193812918984;
lost_ratio_sales_ret_w = 60;
lost_ratio_sales_dis_th = 0.8074705318031581;
lost_ratio_sales_dis_w = 25;
lost_ratio_sales_fac_th = 0.9771376804907574;
lost_ratio_sales_fac_w = 74;
stock_customer_MA_mean_relative_th = 0.10027692662766385;
stock_customer_MA_mean_relative_w = 4;
stock_distributor_MA_mean_relative_th = 0.3192703713133369;
stock_distributor_MA_mean_relative_w = 89;
stock_retailer_MA_mean_relative_th = 0.26860265404776085;
stock_retailer_MA_mean_relative_w = 96;
stock_factory_MA_mean_relative_th = 0.4416778005178861;
stock_factory_MA_mean_relative_w = 3;
